100
128
20
20
49
2
17
6
6
14
2
13
39
34
64
15
12
46
2
9
61
32
64
56
57
13
30
4
53
42
58
42
4
1
47
52
56
26
61
2
15
60
59
60
58
5
11
1
55
4
57
1
40
49
53
5
9
59
51
46
1
4
41
56
48
4
63
10
51
11
58
30
57
48
6
20
1
44
6
40
18
52
50
54
4
24
26
37
3
49
4
48
3
31
37
63
63
5
36
18
10
1